100
32
31
25
22
10
32
18
15
2
10
6
21
2
16
1
12
17
1
2
1
1
24
2
7
16
1
1
2
3
18
3
2
1
1
17
2
6
1
1
17
5
3
6
5
1
1
2
2
1
1
2
2
2
1
3
1
2
1
1
2
1
1
1
18
1
1
1
1
1
1
2
19
20
18
1
1
1
1
3
4
17
2
1
1
1
6
3
1
1
1
5
1
2
1
1
5
2
5
5
2
2